<number of tasks>
50

<cycle time>
1000

<order strength>
0.896


<task times>
1 711
2 586
3 416
4 332
5 461
6 409
7 249
8 388
9 497
10 468
11 552
12 502
13 578
14 726
15 160
16 594
17 518
18 526
19 346
20 274
21 560
22 666
23 607
24 705
25 472
26 397
27 393
28 555
29 408
30 342
31 580
32 443
33 529
34 434
35 645
36 440
37 501
38 694
39 564
40 446
41 414
42 494
43 711
44 686
45 320
46 374
47 467
48 443
49 589
50 615

<precedence relations>
1,4
1,5
2,4
2,5
3,4
3,5
4,6
4,7
4,8
5,6
5,7
5,8
6,9
6,10
7,9
7,10
8,9
8,10
9,11
9,12
9,13
10,11
10,12
10,13
11,14
11,15
11,16
11,17
12,14
12,15
12,16
12,17
13,14
13,15
13,16
13,17
14,18
14,19
14,20
15,18
15,19
15,20
16,18
16,19
16,20
17,18
17,19
17,20
18,21
18,30
18,31
19,28
20,21
20,22
20,23
21,32
21,33
22,24
22,25
23,25
23,26
24,33
25,27
25,28
26,27
26,28
27,29
27,30
27,31
28,29
28,31
29,32
29,33
30,32
30,33
31,32
31,33
32,37
33,34
33,35
33,36
33,39
34,41
34,42
35,40
36,38
37,39
38,41
38,42
39,40
39,41
40,45
40,46
40,47
41,43
42,44
43,47
44,45
44,46
45,50
46,50
47,48
47,49

<end>
